WARNING: for repeatability, setting FPU to use double precision
============================[ Problem Statistics ]=============================
|                                                                             |
|  Number of variables:            50                                         |
|  Number of clauses:             218                                         |
|  Parse time:                   0.00 s                                       |
|                                                                             |
============================[ Search Statistics ]==============================
| Conflicts |          ORIGINAL         |          LEARNT          | Progress |
|           |    Vars  Clauses Literals |    Limit  Clauses Lit/Cl |          |
===============================================================================
===============================================================================
restarts              : 1
conflicts             : 73             (45117 /sec)
decisions             : 80             (0.00 % random) (49444 /sec)
propagations          : 931            (575402 /sec)
conflict literals     : 271            (15.05 % deleted)
Memory used           : 20.00 MB
CPU time              : 0.001618 s

UNSATISFIABLE
